c File: data_files/evolved_graphs/g3677.col
c
c Auto generated graph
c
p edge 100 1318
e 1 3
e 1 10
e 1 17
e 1 25
e 1 37
e 1 50
e 1 71
e 1 79
e 1 81
e 1 82
e 1 88
e 1 95
e 1 99
e 1 100
e 2 6
e 2 7
e 2 8
e 2 9
e 2 10
e 2 11
e 2 13
e 2 19
e 2 31
e 2 32
e 2 33
e 2 38
e 2 54
e 2 57
e 2 58
e 2 62
e 2 69
e 2 76
e 2 77
e 2 79
e 2 88
e 2 93
e 3 5
e 3 7
e 3 15
e 3 19
e 3 20
e 3 27
e 3 39
e 3 56
e 3 83
e 3 85
e 3 86
e 3 87
e 3 89
e 3 99
e 4 7
e 4 9
e 4 10
e 4 13
e 4 20
e 4 21
e 4 39
e 4 42
e 4 45
e 4 49
e 4 54
e 4 59
e 4 69
e 4 70
e 4 71
e 4 72
e 4 75
e 4 79
e 4 83
e 4 85
e 4 89
e 4 97
e 5 8
e 5 9
e 5 14
e 5 18
e 5 22
e 5 23
e 5 33
e 5 48
e 5 50
e 5 61
e 5 64
e 5 66
e 5 70
e 5 80
e 5 82
e 5 92
e 5 100
e 6 7
e 6 8
e 6 13
e 6 15
e 6 27
e 6 28
e 6 35
e 6 57
e 6 60
e 6 67
e 6 68
e 6 89
e 6 91
e 6 96
e 6 98
e 7 11
e 7 13
e 7 15
e 7 20
e 7 26
e 7 33
e 7 43
e 7 52
e 7 56
e 7 60
e 7 61
e 7 64
e 7 71
e 7 90
e 7 94
e 7 96
e 7 97
e 8 10
e 8 13
e 8 15
e 8 26
e 8 36
e 8 39
e 8 41
e 8 43
e 8 45
e 8 61
e 8 63
e 8 67
e 8 74
e 8 80
e 8 83
e 8 96
e 9 10
e 9 11
e 9 13
e 9 18
e 9 23
e 9 30
e 9 32
e 9 33
e 9 39
e 9 44
e 9 49
e 9 56
e 9 63
e 9 64
e 9 81
e 9 82
e 9 91
e 9 96
e 10 12
e 10 16
e 10 18
e 10 20
e 10 22
e 10 23
e 10 24
e 10 30
e 10 60
e 10 64
e 10 75
e 11 15
e 11 21
e 11 28
e 11 34
e 11 39
e 11 51
e 11 54
e 11 74
e 11 75
e 12 23
e 12 24
e 12 33
e 12 37
e 12 56
e 12 80
e 12 82
e 12 83
e 12 84
e 12 87
e 12 91
e 12 94
e 13 17
e 13 22
e 13 28
e 13 39
e 13 40
e 13 41
e 13 42
e 13 43
e 13 44
e 13 45
e 13 46
e 13 47
e 13 48
e 13 50
e 13 51
e 13 52
e 13 54
e 13 56
e 13 57
e 13 66
e 13 86
e 14 15
e 14 18
e 14 20
e 14 22
e 14 23
e 14 28
e 14 31
e 14 33
e 14 34
e 14 38
e 14 40
e 14 41
e 14 42
e 14 43
e 14 44
e 14 45
e 14 46
e 14 47
e 14 48
e 14 50
e 14 52
e 14 69
e 14 78
e 15 16
e 15 20
e 15 21
e 15 22
e 15 28
e 15 32
e 15 34
e 15 35
e 15 37
e 15 38
e 15 39
e 15 40
e 15 41
e 15 43
e 15 44
e 15 46
e 15 47
e 15 49
e 15 50
e 15 51
e 15 52
e 16 20
e 16 22
e 16 24
e 16 25
e 16 30
e 16 31
e 16 36
e 16 37
e 16 41
e 16 42
e 16 43
e 16 45
e 16 46
e 16 47
e 16 48
e 16 49
e 16 50
e 16 52
e 16 84
e 16 100
e 17 18
e 17 24
e 17 25
e 17 28
e 17 29
e 17 30
e 17 35
e 17 39
e 17 41
e 17 42
e 17 44
e 17 45
e 17 47
e 17 49
e 17 51
e 17 70
e 17 71
e 17 73
e 17 82
e 17 98
e 17 99
e 18 19
e 18 21
e 18 22
e 18 23
e 18 28
e 18 29
e 18 30
e 18 31
e 18 35
e 18 37
e 18 39
e 18 40
e 18 42
e 18 43
e 18 44
e 18 47
e 18 48
e 18 49
e 18 50
e 18 51
e 18 59
e 18 88
e 19 20
e 19 22
e 19 25
e 19 28
e 19 29
e 19 30
e 19 32
e 19 33
e 19 36
e 19 38
e 19 39
e 19 40
e 19 41
e 19 43
e 19 45
e 19 46
e 19 47
e 19 48
e 19 49
e 19 52
e 19 55
e 20 30
e 20 33
e 20 35
e 20 37
e 20 39
e 20 41
e 20 42
e 20 43
e 20 46
e 20 48
e 20 49
e 20 50
e 21 25
e 21 30
e 21 31
e 21 34
e 21 36
e 21 38
e 21 39
e 21 40
e 21 41
e 21 42
e 21 44
e 21 46
e 21 48
e 21 49
e 21 50
e 21 51
e 21 52
e 21 54
e 21 77
e 21 78
e 21 80
e 21 87
e 22 23
e 22 24
e 22 25
e 22 27
e 22 28
e 22 29
e 22 30
e 22 31
e 22 34
e 22 36
e 22 37
e 22 41
e 22 43
e 22 46
e 22 47
e 22 48
e 22 49
e 22 50
e 22 79
e 23 28
e 23 32
e 23 33
e 23 37
e 23 39
e 23 40
e 23 42
e 23 43
e 23 44
e 23 45
e 23 46
e 23 47
e 23 48
e 23 51
e 23 52
e 23 55
e 23 68
e 24 25
e 24 29
e 24 31
e 24 34
e 24 36
e 24 37
e 24 38
e 24 39
e 24 40
e 24 41
e 24 42
e 24 44
e 24 45
e 24 46
e 24 47
e 24 48
e 24 50
e 24 51
e 24 52
e 24 75
e 24 79
e 25 28
e 25 31
e 25 33
e 25 36
e 25 38
e 25 41
e 25 43
e 25 48
e 25 49
e 25 50
e 25 51
e 25 52
e 25 53
e 25 90
e 26 27
e 26 28
e 26 36
e 26 39
e 26 42
e 26 43
e 26 46
e 26 47
e 26 48
e 26 49
e 26 51
e 26 77
e 26 90
e 27 29
e 27 30
e 27 31
e 27 34
e 27 35
e 27 36
e 27 38
e 27 39
e 27 40
e 27 41
e 27 42
e 27 43
e 27 44
e 27 45
e 27 46
e 27 48
e 27 49
e 27 51
e 27 52
e 28 30
e 28 31
e 28 34
e 28 36
e 28 37
e 28 38
e 28 40
e 28 41
e 28 42
e 28 46
e 28 47
e 28 48
e 28 51
e 28 52
e 28 71
e 28 85
e 28 93
e 29 33
e 29 36
e 29 38
e 29 40
e 29 43
e 29 45
e 29 46
e 29 48
e 29 49
e 29 50
e 29 51
e 29 62
e 29 70
e 29 90
e 30 32
e 30 34
e 30 35
e 30 36
e 30 39
e 30 40
e 30 42
e 30 43
e 30 44
e 30 45
e 30 47
e 30 49
e 30 51
e 30 52
e 30 77
e 30 81
e 31 32
e 31 33
e 31 34
e 31 38
e 31 40
e 31 41
e 31 42
e 31 44
e 31 46
e 31 47
e 31 48
e 31 49
e 31 57
e 31 78
e 31 98
e 32 33
e 32 34
e 32 35
e 32 38
e 32 39
e 32 40
e 32 42
e 32 43
e 32 44
e 32 45
e 32 47
e 32 48
e 32 50
e 32 51
e 32 52
e 32 55
e 32 56
e 32 97
e 33 35
e 33 36
e 33 37
e 33 38
e 33 39
e 33 40
e 33 42
e 33 45
e 33 46
e 33 47
e 33 48
e 33 50
e 33 51
e 33 52
e 33 60
e 33 63
e 33 92
e 33 97
e 34 35
e 34 39
e 34 40
e 34 41
e 34 42
e 34 43
e 34 46
e 34 47
e 34 48
e 34 49
e 34 50
e 34 51
e 34 52
e 34 66
e 34 100
e 35 38
e 35 40
e 35 41
e 35 42
e 35 43
e 35 46
e 35 47
e 35 48
e 35 49
e 35 50
e 35 51
e 35 57
e 35 78
e 35 97
e 36 38
e 36 39
e 36 40
e 36 43
e 36 44
e 36 45
e 36 46
e 36 47
e 36 48
e 36 49
e 36 51
e 36 52
e 36 55
e 36 68
e 36 74
e 36 88
e 36 90
e 37 38
e 37 40
e 37 43
e 37 44
e 37 46
e 37 47
e 37 48
e 37 49
e 37 50
e 37 51
e 37 52
e 38 42
e 38 44
e 38 47
e 38 49
e 38 53
e 38 55
e 38 56
e 38 58
e 38 61
e 38 63
e 38 64
e 38 68
e 38 69
e 38 70
e 38 73
e 38 74
e 38 76
e 38 77
e 38 82
e 38 83
e 38 89
e 38 91
e 38 92
e 38 100
e 39 41
e 39 42
e 39 44
e 39 47
e 39 51
e 39 52
e 39 53
e 39 54
e 39 55
e 39 56
e 39 57
e 39 60
e 39 62
e 39 65
e 39 67
e 39 70
e 39 73
e 39 78
e 39 81
e 39 86
e 39 88
e 39 89
e 39 90
e 40 42
e 40 45
e 40 48
e 40 49
e 40 52
e 40 53
e 40 54
e 40 55
e 40 58
e 40 59
e 40 60
e 40 62
e 40 63
e 40 66
e 40 67
e 40 70
e 40 73
e 40 74
e 40 75
e 40 76
e 40 77
e 40 78
e 40 79
e 40 83
e 40 84
e 40 86
e 40 90
e 40 91
e 40 92
e 40 93
e 40 100
e 41 43
e 41 44
e 41 47
e 41 48
e 41 50
e 41 54
e 41 55
e 41 59
e 41 60
e 41 62
e 41 64
e 41 66
e 41 68
e 41 70
e 41 72
e 41 78
e 41 79
e 41 84
e 41 86
e 41 87
e 41 88
e 41 89
e 41 91
e 41 100
e 42 43
e 42 44
e 42 46
e 42 49
e 42 52
e 42 53
e 42 60
e 42 62
e 42 65
e 42 69
e 42 71
e 42 73
e 42 75
e 42 77
e 42 81
e 42 83
e 42 84
e 42 87
e 42 91
e 42 94
e 43 44
e 43 45
e 43 47
e 43 53
e 43 54
e 43 55
e 43 56
e 43 57
e 43 59
e 43 60
e 43 62
e 43 63
e 43 64
e 43 67
e 43 70
e 43 72
e 43 73
e 43 77
e 43 84
e 43 85
e 43 86
e 43 89
e 43 90
e 43 94
e 43 95
e 44 47
e 44 50
e 44 51
e 44 53
e 44 56
e 44 57
e 44 63
e 44 64
e 44 65
e 44 66
e 44 69
e 44 72
e 44 74
e 44 76
e 44 79
e 44 81
e 44 82
e 44 86
e 44 87
e 44 88
e 44 89
e 44 97
e 44 98
e 45 46
e 45 48
e 45 51
e 45 52
e 45 56
e 45 59
e 45 61
e 45 62
e 45 65
e 45 66
e 45 68
e 45 69
e 45 73
e 45 74
e 45 75
e 45 81
e 45 83
e 45 85
e 45 86
e 45 88
e 45 91
e 45 92
e 46 47
e 46 49
e 46 55
e 46 57
e 46 58
e 46 59
e 46 60
e 46 62
e 46 63
e 46 65
e 46 68
e 46 69
e 46 71
e 46 73
e 46 74
e 46 76
e 46 77
e 46 78
e 46 83
e 46 85
e 46 86
e 46 89
e 46 92
e 46 93
e 47 50
e 47 51
e 47 52
e 47 53
e 47 59
e 47 65
e 47 66
e 47 67
e 47 69
e 47 71
e 47 73
e 47 74
e 47 75
e 47 76
e 47 77
e 47 79
e 47 81
e 47 86
e 47 87
e 47 89
e 48 51
e 48 52
e 48 53
e 48 56
e 48 57
e 48 59
e 48 62
e 48 63
e 48 66
e 48 67
e 48 68
e 48 69
e 48 74
e 48 77
e 48 79
e 48 81
e 48 82
e 48 87
e 48 88
e 48 89
e 48 92
e 49 53
e 49 57
e 49 58
e 49 61
e 49 64
e 49 66
e 49 68
e 49 70
e 49 72
e 49 77
e 49 78
e 49 81
e 49 82
e 49 83
e 49 85
e 49 88
e 49 90
e 49 91
e 49 92
e 49 100
e 50 54
e 50 55
e 50 56
e 50 59
e 50 61
e 50 63
e 50 64
e 50 67
e 50 68
e 50 69
e 50 72
e 50 73
e 50 74
e 50 76
e 50 77
e 50 83
e 50 85
e 50 89
e 50 91
e 50 92
e 50 97
e 50 98
e 50 100
e 51 56
e 51 57
e 51 58
e 51 62
e 51 70
e 51 72
e 51 74
e 51 75
e 51 80
e 51 83
e 51 84
e 51 85
e 51 86
e 51 88
e 51 89
e 51 96
e 51 98
e 52 55
e 52 56
e 52 57
e 52 59
e 52 60
e 52 63
e 52 64
e 52 65
e 52 67
e 52 69
e 52 70
e 52 71
e 52 73
e 52 74
e 52 75
e 52 78
e 52 79
e 52 82
e 52 83
e 52 87
e 52 88
e 52 90
e 52 91
e 53 55
e 53 56
e 53 57
e 53 58
e 53 65
e 53 67
e 53 70
e 53 74
e 53 76
e 53 77
e 53 85
e 53 88
e 53 89
e 53 92
e 53 93
e 54 56
e 54 59
e 54 60
e 54 62
e 54 63
e 54 64
e 54 68
e 54 69
e 54 70
e 54 75
e 54 80
e 54 81
e 54 82
e 54 84
e 54 85
e 54 89
e 54 91
e 54 100
e 55 58
e 55 59
e 55 60
e 55 62
e 55 63
e 55 67
e 55 68
e 55 70
e 55 71
e 55 77
e 55 78
e 55 80
e 55 83
e 55 85
e 55 86
e 55 91
e 55 99
e 56 61
e 56 62
e 56 63
e 56 64
e 56 67
e 56 70
e 56 71
e 56 73
e 56 75
e 56 79
e 56 80
e 56 82
e 56 86
e 56 92
e 56 97
e 57 62
e 57 63
e 57 66
e 57 76
e 57 79
e 57 81
e 57 84
e 57 87
e 57 91
e 57 95
e 58 62
e 58 63
e 58 66
e 58 67
e 58 72
e 58 73
e 58 80
e 58 90
e 58 91
e 58 92
e 59 64
e 59 67
e 59 68
e 59 71
e 59 72
e 59 74
e 59 75
e 59 78
e 59 81
e 59 83
e 59 87
e 59 90
e 59 92
e 59 94
e 59 97
e 60 61
e 60 64
e 60 65
e 60 68
e 60 69
e 60 70
e 60 72
e 60 73
e 60 76
e 60 78
e 60 84
e 60 87
e 60 88
e 60 91
e 60 94
e 60 96
e 60 97
e 61 63
e 61 66
e 61 67
e 61 71
e 61 72
e 61 74
e 61 81
e 61 82
e 61 85
e 61 86
e 61 87
e 61 88
e 61 89
e 61 90
e 61 91
e 61 92
e 61 95
e 61 99
e 62 65
e 62 66
e 62 72
e 62 75
e 62 76
e 62 79
e 62 80
e 62 82
e 62 83
e 62 85
e 62 87
e 62 89
e 63 64
e 63 67
e 63 68
e 63 73
e 63 74
e 63 75
e 63 76
e 63 79
e 63 81
e 63 85
e 63 87
e 63 88
e 63 89
e 63 90
e 63 100
e 64 68
e 64 71
e 64 73
e 64 75
e 64 77
e 64 78
e 64 80
e 64 81
e 64 83
e 64 89
e 64 90
e 64 93
e 64 98
e 65 68
e 65 72
e 65 73
e 65 77
e 65 82
e 65 88
e 65 90
e 65 91
e 66 69
e 66 72
e 66 76
e 66 77
e 66 78
e 66 81
e 66 82
e 66 86
e 66 88
e 66 98
e 67 68
e 67 69
e 67 77
e 67 78
e 67 79
e 67 80
e 67 83
e 67 89
e 67 91
e 68 72
e 68 75
e 68 80
e 68 81
e 68 85
e 68 89
e 68 90
e 69 73
e 69 74
e 69 75
e 69 76
e 69 79
e 69 80
e 69 89
e 69 94
e 69 99
e 70 71
e 70 72
e 70 73
e 70 78
e 70 80
e 70 81
e 70 89
e 70 91
e 70 92
e 71 72
e 71 76
e 71 79
e 71 80
e 71 81
e 71 85
e 71 89
e 71 91
e 72 74
e 72 75
e 72 78
e 72 79
e 72 85
e 72 86
e 72 92
e 72 98
e 73 74
e 73 75
e 73 80
e 73 81
e 73 82
e 73 83
e 73 86
e 73 87
e 73 89
e 73 90
e 73 91
e 73 93
e 74 76
e 74 78
e 74 84
e 74 85
e 74 88
e 74 91
e 74 96
e 74 97
e 75 78
e 75 80
e 75 81
e 75 82
e 75 83
e 75 84
e 75 86
e 75 87
e 75 88
e 75 91
e 75 92
e 76 77
e 76 79
e 76 80
e 76 82
e 76 84
e 76 89
e 76 94
e 76 98
e 77 78
e 77 80
e 77 84
e 77 87
e 77 96
e 78 79
e 78 80
e 78 81
e 78 85
e 78 90
e 78 91
e 78 93
e 78 94
e 78 98
e 78 100
e 79 83
e 79 87
e 79 89
e 79 90
e 79 91
e 79 92
e 80 82
e 80 83
e 80 84
e 80 86
e 80 89
e 80 92
e 81 84
e 81 90
e 81 91
e 82 87
e 82 88
e 82 90
e 82 91
e 83 86
e 83 92
e 83 97
e 84 85
e 84 86
e 84 87
e 84 89
e 84 90
e 84 91
e 84 92
e 85 86
e 85 97
e 85 100
e 86 87
e 86 90
e 86 95
e 86 99
e 87 88
e 87 93
e 88 89
e 88 90
e 88 98
e 89 91
e 90 91
e 90 97
e 90 98
e 91 99
e 92 96
e 93 96
e 94 96
e 94 98
e 95 97
e 97 99
e 99 100
